<number of tasks>
50

<cycle time>
1000

<order strength>
0.6


<task times>
1 130
2 274
3 49
4 67
5 234
6 197
7 212
8 115
9 134
10 182
11 155
12 141
13 35
14 73
15 76
16 67
17 201
18 185
19 84
20 161
21 113
22 79
23 92
24 63
25 30
26 94
27 79
28 53
29 379
30 178
31 222
32 110
33 23
34 175
35 67
36 105
37 109
38 31
39 284
40 68
41 114
42 30
43 117
44 282
45 44
46 116
47 124
48 175
49 294
50 156

<precedence relations>
1,12
2,12
3,12
4,24
5,7
5,8
5,9
5,10
5,11
6,7
6,8
6,9
7,12
8,24
9,39
10,39
11,13
11,14
11,15
11,26
11,27
12,16
12,17
12,18
12,19
12,20
12,21
12,22
13,23
14,22
14,23
14,25
14,34
15,22
15,34
15,35
15,36
16,24
17,34
18,35
18,36
19,26
19,27
20,25
20,26
21,27
21,36
22,24
23,35
23,36
24,28
24,29
24,30
24,31
24,32
24,33
25,33
25,36
26,35
27,33
27,34
27,38
28,50
29,38
29,39
30,45
30,46
31,37
31,40
32,38
33,39
34,39
34,40
35,37
35,38
36,37
36,40
37,39
38,40
39,41
39,42
39,43
39,44
40,45
40,46
40,47
42,50
45,48
47,49
48,49
48,50

<end>
